c File: flat50_3_0.col
c
c SOURCE: Joseph Culberson (joe@cs.ualberta.ca)
c DESCRIPTION: Quasi-random coloring problem
c              generated with flatness = 0
c                             probability = 0.139
c                             known coloring = 3
c                             random seed = 1286
c              Creation Date:  Tue Jun  9 12:05:38 1998
c Maximum degree = 8 Minimum degree = 0
c p edge 50 115
c cnf created by edge2cnf
p cnf 150 545
-1 -2 0
-1 -3 0
-2 -3 0
1 2 3 0
-4 -5 0
-4 -6 0
-5 -6 0
4 5 6 0
-7 -8 0
-7 -9 0
-8 -9 0
7 8 9 0
-10 -11 0
-10 -12 0
-11 -12 0
10 11 12 0
-13 -14 0
-13 -15 0
-14 -15 0
13 14 15 0
-16 -17 0
-16 -18 0
-17 -18 0
16 17 18 0
-19 -20 0
-19 -21 0
-20 -21 0
19 20 21 0
-22 -23 0
-22 -24 0
-23 -24 0
22 23 24 0
-25 -26 0
-25 -27 0
-26 -27 0
25 26 27 0
-28 -29 0
-28 -30 0
-29 -30 0
28 29 30 0
-31 -32 0
-31 -33 0
-32 -33 0
31 32 33 0
-34 -35 0
-34 -36 0
-35 -36 0
34 35 36 0
-37 -38 0
-37 -39 0
-38 -39 0
37 38 39 0
-40 -41 0
-40 -42 0
-41 -42 0
40 41 42 0
-43 -44 0
-43 -45 0
-44 -45 0
43 44 45 0
-46 -47 0
-46 -48 0
-47 -48 0
46 47 48 0
-49 -50 0
-49 -51 0
-50 -51 0
49 50 51 0
-52 -53 0
-52 -54 0
-53 -54 0
52 53 54 0
-55 -56 0
-55 -57 0
-56 -57 0
55 56 57 0
-58 -59 0
-58 -60 0
-59 -60 0
58 59 60 0
-61 -62 0
-61 -63 0
-62 -63 0
61 62 63 0
-64 -65 0
-64 -66 0
-65 -66 0
64 65 66 0
-67 -68 0
-67 -69 0
-68 -69 0
67 68 69 0
-70 -71 0
-70 -72 0
-71 -72 0
70 71 72 0
-73 -74 0
-73 -75 0
-74 -75 0
73 74 75 0
-76 -77 0
-76 -78 0
-77 -78 0
76 77 78 0
-79 -80 0
-79 -81 0
-80 -81 0
79 80 81 0
-82 -83 0
-82 -84 0
-83 -84 0
82 83 84 0
-85 -86 0
-85 -87 0
-86 -87 0
85 86 87 0
-88 -89 0
-88 -90 0
-89 -90 0
88 89 90 0
-91 -92 0
-91 -93 0
-92 -93 0
91 92 93 0
-94 -95 0
-94 -96 0
-95 -96 0
94 95 96 0
-97 -98 0
-97 -99 0
-98 -99 0
97 98 99 0
-100 -101 0
-100 -102 0
-101 -102 0
100 101 102 0
-103 -104 0
-103 -105 0
-104 -105 0
103 104 105 0
-106 -107 0
-106 -108 0
-107 -108 0
106 107 108 0
-109 -110 0
-109 -111 0
-110 -111 0
109 110 111 0
-112 -113 0
-112 -114 0
-113 -114 0
112 113 114 0
-115 -116 0
-115 -117 0
-116 -117 0
115 116 117 0
-118 -119 0
-118 -120 0
-119 -120 0
118 119 120 0
-121 -122 0
-121 -123 0
-122 -123 0
121 122 123 0
-124 -125 0
-124 -126 0
-125 -126 0
124 125 126 0
-127 -128 0
-127 -129 0
-128 -129 0
127 128 129 0
-130 -131 0
-130 -132 0
-131 -132 0
130 131 132 0
-133 -134 0
-133 -135 0
-134 -135 0
133 134 135 0
-136 -137 0
-136 -138 0
-137 -138 0
136 137 138 0
-139 -140 0
-139 -141 0
-140 -141 0
139 140 141 0
-142 -143 0
-142 -144 0
-143 -144 0
142 143 144 0
-145 -146 0
-145 -147 0
-146 -147 0
145 146 147 0
-148 -149 0
-148 -150 0
-149 -150 0
148 149 150 0
-52 -1 0
-53 -2 0
-54 -3 0
-67 -1 0
-68 -2 0
-69 -3 0
-97 -1 0
-98 -2 0
-99 -3 0
-106 -1 0
-107 -2 0
-108 -3 0
-55 -4 0
-56 -5 0
-57 -6 0
-64 -4 0
-65 -5 0
-66 -6 0
-67 -4 0
-68 -5 0
-69 -6 0
-100 -4 0
-101 -5 0
-102 -6 0
-112 -4 0
-113 -5 0
-114 -6 0
-121 -4 0
-122 -5 0
-123 -6 0
-148 -4 0
-149 -5 0
-150 -6 0
-58 -10 0
-59 -11 0
-60 -12 0
-61 -10 0
-62 -11 0
-63 -12 0
-79 -10 0
-80 -11 0
-81 -12 0
-124 -10 0
-125 -11 0
-126 -12 0
-55 -13 0
-56 -14 0
-57 -15 0
-64 -13 0
-65 -14 0
-66 -15 0
-85 -13 0
-86 -14 0
-87 -15 0
-91 -13 0
-92 -14 0
-93 -15 0
-112 -13 0
-113 -14 0
-114 -15 0
-127 -13 0
-128 -14 0
-129 -15 0
-130 -13 0
-131 -14 0
-132 -15 0
-139 -13 0
-140 -14 0
-141 -15 0
-58 -16 0
-59 -17 0
-60 -18 0
-79 -16 0
-80 -17 0
-81 -18 0
-82 -16 0
-83 -17 0
-84 -18 0
-97 -16 0
-98 -17 0
-99 -18 0
-118 -16 0
-119 -17 0
-120 -18 0
-109 -19 0
-110 -20 0
-111 -21 0
-139 -19 0
-140 -20 0
-141 -21 0
-106 -22 0
-107 -23 0
-108 -24 0
-136 -22 0
-137 -23 0
-138 -24 0
-145 -22 0
-146 -23 0
-147 -24 0
-70 -25 0
-71 -26 0
-72 -27 0
-100 -25 0
-101 -26 0
-102 -27 0
-109 -25 0
-110 -26 0
-111 -27 0
-127 -25 0
-128 -26 0
-129 -27 0
-73 -28 0
-74 -29 0
-75 -30 0
-91 -28 0
-92 -29 0
-93 -30 0
-94 -28 0
-95 -29 0
-96 -30 0
-103 -28 0
-104 -29 0
-105 -30 0
-106 -28 0
-107 -29 0
-108 -30 0
-115 -28 0
-116 -29 0
-117 -30 0
-133 -28 0
-134 -29 0
-135 -30 0
-70 -31 0
-71 -32 0
-72 -33 0
-73 -31 0
-74 -32 0
-75 -33 0
-79 -31 0
-80 -32 0
-81 -33 0
-94 -31 0
-95 -32 0
-96 -33 0
-112 -31 0
-113 -32 0
-114 -33 0
-52 -34 0
-53 -35 0
-54 -36 0
-61 -34 0
-62 -35 0
-63 -36 0
-73 -34 0
-74 -35 0
-75 -36 0
-82 -34 0
-83 -35 0
-84 -36 0
-118 -34 0
-119 -35 0
-120 -36 0
-127 -34 0
-128 -35 0
-129 -36 0
-130 -34 0
-131 -35 0
-132 -36 0
-52 -37 0
-53 -38 0
-54 -39 0
-55 -37 0
-56 -38 0
-57 -39 0
-64 -37 0
-65 -38 0
-66 -39 0
-91 -37 0
-92 -38 0
-93 -39 0
-121 -37 0
-122 -38 0
-123 -39 0
-61 -40 0
-62 -41 0
-63 -42 0
-109 -40 0
-110 -41 0
-111 -42 0
-103 -43 0
-104 -44 0
-105 -45 0
-121 -43 0
-122 -44 0
-123 -45 0
-124 -43 0
-125 -44 0
-126 -45 0
-133 -43 0
-134 -44 0
-135 -45 0
-61 -46 0
-62 -47 0
-63 -48 0
-130 -46 0
-131 -47 0
-132 -48 0
-136 -46 0
-137 -47 0
-138 -48 0
-55 -49 0
-56 -50 0
-57 -51 0
-64 -49 0
-65 -50 0
-66 -51 0
-82 -49 0
-83 -50 0
-84 -51 0
-103 -49 0
-104 -50 0
-105 -51 0
-106 -49 0
-107 -50 0
-108 -51 0
-121 -49 0
-122 -50 0
-123 -51 0
-145 -49 0
-146 -50 0
-147 -51 0
-103 -52 0
-104 -53 0
-105 -54 0
-115 -52 0
-116 -53 0
-117 -54 0
-127 -52 0
-128 -53 0
-129 -54 0
-130 -52 0
-131 -53 0
-132 -54 0
-118 -55 0
-119 -56 0
-120 -57 0
-130 -58 0
-131 -59 0
-132 -60 0
-133 -58 0
-134 -59 0
-135 -60 0
-106 -61 0
-107 -62 0
-108 -63 0
-118 -61 0
-119 -62 0
-120 -63 0
-124 -61 0
-125 -62 0
-126 -63 0
-106 -64 0
-107 -65 0
-108 -66 0
-118 -64 0
-119 -65 0
-120 -66 0
-121 -64 0
-122 -65 0
-123 -66 0
-148 -64 0
-149 -65 0
-150 -66 0
-118 -67 0
-119 -68 0
-120 -69 0
-121 -67 0
-122 -68 0
-123 -69 0
-148 -67 0
-149 -68 0
-150 -69 0
-103 -70 0
-104 -71 0
-105 -72 0
-106 -70 0
-107 -71 0
-108 -72 0
-133 -70 0
-134 -71 0
-135 -72 0
-103 -73 0
-104 -74 0
-105 -75 0
-112 -73 0
-113 -74 0
-114 -75 0
-148 -73 0
-149 -74 0
-150 -75 0
-103 -76 0
-104 -77 0
-105 -78 0
-115 -76 0
-116 -77 0
-117 -78 0
-127 -79 0
-128 -80 0
-129 -81 0
-139 -79 0
-140 -80 0
-141 -81 0
-130 -85 0
-131 -86 0
-132 -87 0
-136 -85 0
-137 -86 0
-138 -87 0
-112 -88 0
-113 -89 0
-114 -90 0
-121 -88 0
-122 -89 0
-123 -90 0
-130 -88 0
-131 -89 0
-132 -90 0
-136 -88 0
-137 -89 0
-138 -90 0
-121 -91 0
-122 -92 0
-123 -93 0
-136 -94 0
-137 -95 0
-138 -96 0
-106 -100 0
-107 -101 0
-108 -102 0
-112 -100 0
-113 -101 0
-114 -102 0
-136 -100 0
-137 -101 0
-138 -102 0
